This is Ipopt version 3.13.4, running with linear solver mumps.
NOTE: Other linear solvers might be more efficient (see Ipopt documentation).

Number of nonzeros in equality constraint Jacobian...:     1656
Number of nonzeros in inequality constraint Jacobian.:        0
Number of nonzeros in Lagrangian Hessian.............:     1653

Total number of variables............................:      828
                     variables with only lower bounds:        0
                variables with lower and upper bounds:      828
                     variables with only upper bounds:        0
Total number of equality constraints.................:      279
Total number of inequality constraints...............:        0
        inequality constraints with only lower bounds:        0
   inequality constraints with lower and upper bounds:        0
        inequality constraints with only upper bounds:        0

iter    objective    inf_pr   inf_du lg(mu)  ||d||  lg(rg) alpha_du alpha_pr  ls
   0  5.5206741e+01 6.84e+00 5.46e+01   0.0 0.00e+00    -  0.00e+00 0.00e+00   0

Number of Iterations....: 0

                                   (scaled)                 (unscaled)
Objective...............:   5.5206741188972032e+01    5.5206741188972032e+01
Dual infeasibility......:   5.4559537296985155e+01    5.4559537296985155e+01
Constraint violation....:   6.8408001568160000e+00    6.8408001568160000e+00
Complementarity.........:   1.9900000198999999e+00    1.9900000198999999e+00
Overall NLP error.......:   5.4559537296985155e+01    5.4559537296985155e+01


Number of objective function evaluations             = 1
Number of objective gradient evaluations             = 1
Number of equality constraint evaluations            = 1
Number of inequality constraint evaluations          = 0
Number of equality constraint Jacobian evaluations   = 1
Number of inequality constraint Jacobian evaluations = 0
Number of Lagrangian Hessian evaluations             = 0
Total CPU secs in IPOPT (w/o function evaluations)   =      0.030
Total CPU secs in NLP function evaluations           =      0.011

EXIT: Maximum Number of Iterations Exceeded.
